72 39 67 23 75 56 4 54 55 25 24 80 
53 87 57 41 22 74 58 
5 45 36 47 62 63 11 19 64 49 46 48 
52 82 83 8 84 17 60 89 
27 69 31 88 7 18 6 94 13 
95 92 42 15 2 73 21 40 26 50 20 66 35 68 
33 65 71 30 90 10 32 70 1 
59 98 14 38 44 16 61 86 85 99 96 97 37 43 100 91 93 
28 12 29 76 79 81 51 9 78 34 3 77 
